p cnf 45 575
-1 -28 0
-1 -29 0
-1 -30 0
-1 -31 0
-1 -32 0
-2 -28 0
-2 -29 0
-2 -30 0
-2 -31 0
-2 -32 0
-3 -28 0
-3 -29 0
-3 -30 0
-3 -31 0
-3 -32 0
-4 -28 0
-4 -29 0
-4 -30 0
-4 -31 0
-4 -32 0
-5 -28 0
-5 -29 0
-5 -30 0
-5 -31 0
-5 -32 0
-1 -37 0
-1 -38 0
-1 -39 0
-1 -40 0
-1 -41 0
-2 -37 0
-2 -38 0
-2 -39 0
-2 -40 0
-2 -41 0
-3 -37 0
-3 -38 0
-3 -39 0
-3 -40 0
-3 -41 0
-4 -37 0
-4 -38 0
-4 -39 0
-4 -40 0
-4 -41 0
-5 -37 0
-5 -38 0
-5 -39 0
-5 -40 0
-5 -41 0
-1 -55 0
-1 -56 0
-1 -57 0
-1 -58 0
-1 -59 0
-2 -55 0
-2 -56 0
-2 -57 0
-2 -58 0
-2 -59 0
-3 -55 0
-3 -56 0
-3 -57 0
-3 -58 0
-3 -59 0
-4 -55 0
-4 -56 0
-4 -57 0
-4 -58 0
-4 -59 0
-5 -55 0
-5 -56 0
-5 -57 0
-5 -58 0
-5 -59 0
-1 -73 0
-1 -74 0
-1 -75 0
-1 -76 0
-1 -77 0
-2 -73 0
-2 -74 0
-2 -75 0
-2 -76 0
-2 -77 0
-3 -73 0
-3 -74 0
-3 -75 0
-3 -76 0
-3 -77 0
-4 -73 0
-4 -74 0
-4 -75 0
-4 -76 0
-4 -77 0
-5 -73 0
-5 -74 0
-5 -75 0
-5 -76 0
-5 -77 0
-10 -28 0
-10 -29 0
-10 -30 0
-10 -31 0
-10 -32 0
-11 -28 0
-11 -29 0
-11 -30 0
-11 -31 0
-11 -32 0
-12 -28 0
-12 -29 0
-12 -30 0
-12 -31 0
-12 -32 0
-13 -28 0
-13 -29 0
-13 -30 0
-13 -31 0
-13 -32 0
-14 -28 0
-14 -29 0
-14 -30 0
-14 -31 0
-14 -32 0
-19 -28 0
-19 -29 0
-19 -30 0
-19 -31 0
-19 -32 0
-20 -28 0
-20 -29 0
-20 -30 0
-20 -31 0
-20 -32 0
-21 -28 0
-21 -29 0
-21 -30 0
-21 -31 0
-21 -32 0
-22 -28 0
-22 -29 0
-22 -30 0
-22 -31 0
-22 -32 0
-23 -28 0
-23 -29 0
-23 -30 0
-23 -31 0
-23 -32 0
-28 -46 0
-28 -47 0
-28 -48 0
-28 -49 0
-28 -50 0
-29 -46 0
-29 -47 0
-29 -48 0
-29 -49 0
-29 -50 0
-30 -46 0
-30 -47 0
-30 -48 0
-30 -49 0
-30 -50 0
-31 -46 0
-31 -47 0
-31 -48 0
-31 -49 0
-31 -50 0
-32 -46 0
-32 -47 0
-32 -48 0
-32 -49 0
-32 -50 0
-28 -55 0
-28 -56 0
-28 -57 0
-28 -58 0
-28 -59 0
-29 -55 0
-29 -56 0
-29 -57 0
-29 -58 0
-29 -59 0
-30 -55 0
-30 -56 0
-30 -57 0
-30 -58 0
-30 -59 0
-31 -55 0
-31 -56 0
-31 -57 0
-31 -58 0
-31 -59 0
-32 -55 0
-32 -56 0
-32 -57 0
-32 -58 0
-32 -59 0
-37 -55 0
-37 -56 0
-37 -57 0
-37 -58 0
-37 -59 0
-38 -55 0
-38 -56 0
-38 -57 0
-38 -58 0
-38 -59 0
-39 -55 0
-39 -56 0
-39 -57 0
-39 -58 0
-39 -59 0
-40 -55 0
-40 -56 0
-40 -57 0
-40 -58 0
-40 -59 0
-41 -55 0
-41 -56 0
-41 -57 0
-41 -58 0
-41 -59 0
-46 -64 0
-46 -65 0
-46 -66 0
-46 -67 0
-46 -68 0
-47 -64 0
-47 -65 0
-47 -66 0
-47 -67 0
-47 -68 0
-48 -64 0
-48 -65 0
-48 -66 0
-48 -67 0
-48 -68 0
-49 -64 0
-49 -65 0
-49 -66 0
-49 -67 0
-49 -68 0
-50 -64 0
-50 -65 0
-50 -66 0
-50 -67 0
-50 -68 0
-46 -73 0
-46 -74 0
-46 -75 0
-46 -76 0
-46 -77 0
-47 -73 0
-47 -74 0
-47 -75 0
-47 -76 0
-47 -77 0
-48 -73 0
-48 -74 0
-48 -75 0
-48 -76 0
-48 -77 0
-49 -73 0
-49 -74 0
-49 -75 0
-49 -76 0
-49 -77 0
-50 -73 0
-50 -74 0
-50 -75 0
-50 -76 0
-50 -77 0
-55 -73 0
-55 -74 0
-55 -75 0
-55 -76 0
-55 -77 0
-56 -73 0
-56 -74 0
-56 -75 0
-56 -76 0
-56 -77 0
-57 -73 0
-57 -74 0
-57 -75 0
-57 -76 0
-57 -77 0
-58 -73 0
-58 -74 0
-58 -75 0
-58 -76 0
-58 -77 0
-59 -73 0
-59 -74 0
-59 -75 0
-59 -76 0
-59 -77 0
-1 -10 0
-1 -19 0
-1 -28 0
-1 -37 0
-1 -46 0
-1 -55 0
-1 -64 0
-1 -73 0
-10 -19 0
-10 -28 0
-10 -37 0
-10 -46 0
-10 -55 0
-10 -64 0
-10 -73 0
-19 -28 0
-19 -37 0
-19 -46 0
-19 -55 0
-19 -64 0
-19 -73 0
-28 -37 0
-28 -46 0
-28 -55 0
-28 -64 0
-28 -73 0
-37 -46 0
-37 -55 0
-37 -64 0
-37 -73 0
-46 -55 0
-46 -64 0
-46 -73 0
-55 -64 0
-55 -73 0
-64 -73 0
1 10 19 28 37 46 55 64 73 0
-2 -11 0
-2 -20 0
-2 -29 0
-2 -38 0
-2 -47 0
-2 -56 0
-2 -65 0
-2 -74 0
-11 -20 0
-11 -29 0
-11 -38 0
-11 -47 0
-11 -56 0
-11 -65 0
-11 -74 0
-20 -29 0
-20 -38 0
-20 -47 0
-20 -56 0
-20 -65 0
-20 -74 0
-29 -38 0
-29 -47 0
-29 -56 0
-29 -65 0
-29 -74 0
-38 -47 0
-38 -56 0
-38 -65 0
-38 -74 0
-47 -56 0
-47 -65 0
-47 -74 0
-56 -65 0
-56 -74 0
-65 -74 0
2 11 20 29 38 47 56 65 74 0
-3 -12 0
-3 -21 0
-3 -30 0
-3 -39 0
-3 -48 0
-3 -57 0
-3 -66 0
-3 -75 0
-12 -21 0
-12 -30 0
-12 -39 0
-12 -48 0
-12 -57 0
-12 -66 0
-12 -75 0
-21 -30 0
-21 -39 0
-21 -48 0
-21 -57 0
-21 -66 0
-21 -75 0
-30 -39 0
-30 -48 0
-30 -57 0
-30 -66 0
-30 -75 0
-39 -48 0
-39 -57 0
-39 -66 0
-39 -75 0
-48 -57 0
-48 -66 0
-48 -75 0
-57 -66 0
-57 -75 0
-66 -75 0
3 12 21 30 39 48 57 66 75 0
-4 -13 0
-4 -22 0
-4 -31 0
-4 -40 0
-4 -49 0
-4 -58 0
-4 -67 0
-4 -76 0
-13 -22 0
-13 -31 0
-13 -40 0
-13 -49 0
-13 -58 0
-13 -67 0
-13 -76 0
-22 -31 0
-22 -40 0
-22 -49 0
-22 -58 0
-22 -67 0
-22 -76 0
-31 -40 0
-31 -49 0
-31 -58 0
-31 -67 0
-31 -76 0
-40 -49 0
-40 -58 0
-40 -67 0
-40 -76 0
-49 -58 0
-49 -67 0
-49 -76 0
-58 -67 0
-58 -76 0
-67 -76 0
4 13 22 31 40 49 58 67 76 0
-5 -14 0
-5 -23 0
-5 -32 0
-5 -41 0
-5 -50 0
-5 -59 0
-5 -68 0
-5 -77 0
-14 -23 0
-14 -32 0
-14 -41 0
-14 -50 0
-14 -59 0
-14 -68 0
-14 -77 0
-23 -32 0
-23 -41 0
-23 -50 0
-23 -59 0
-23 -68 0
-23 -77 0
-32 -41 0
-32 -50 0
-32 -59 0
-32 -68 0
-32 -77 0
-41 -50 0
-41 -59 0
-41 -68 0
-41 -77 0
-50 -59 0
-50 -68 0
-50 -77 0
-59 -68 0
-59 -77 0
-68 -77 0
5 14 23 32 41 50 59 68 77 0
-1 -2 0
-1 -3 0
-1 -4 0
-1 -5 0
-2 -3 0
-2 -4 0
-2 -5 0
-3 -4 0
-3 -5 0
-4 -5 0
-10 -11 0
-10 -12 0
-10 -13 0
-10 -14 0
-11 -12 0
-11 -13 0
-11 -14 0
-12 -13 0
-12 -14 0
-13 -14 0
-19 -20 0
-19 -21 0
-19 -22 0
-19 -23 0
-20 -21 0
-20 -22 0
-20 -23 0
-21 -22 0
-21 -23 0
-22 -23 0
-28 -29 0
-28 -30 0
-28 -31 0
-28 -32 0
-29 -30 0
-29 -31 0
-29 -32 0
-30 -31 0
-30 -32 0
-31 -32 0
-37 -38 0
-37 -39 0
-37 -40 0
-37 -41 0
-38 -39 0
-38 -40 0
-38 -41 0
-39 -40 0
-39 -41 0
-40 -41 0
-46 -47 0
-46 -48 0
-46 -49 0
-46 -50 0
-47 -48 0
-47 -49 0
-47 -50 0
-48 -49 0
-48 -50 0
-49 -50 0
-55 -56 0
-55 -57 0
-55 -58 0
-55 -59 0
-56 -57 0
-56 -58 0
-56 -59 0
-57 -58 0
-57 -59 0
-58 -59 0
-64 -65 0
-64 -66 0
-64 -67 0
-64 -68 0
-65 -66 0
-65 -67 0
-65 -68 0
-66 -67 0
-66 -68 0
-67 -68 0
-73 -74 0
-73 -75 0
-73 -76 0
-73 -77 0
-74 -75 0
-74 -76 0
-74 -77 0
-75 -76 0
-75 -77 0
-76 -77 0
